Running MiniSat on FULL_RUN_MINISAT\94dd280b1562ee7dae44b303b8fed233-Break_unsat_18_31.xml.cnf... 
============================[ Problem Statistics ]=============================
|                                                                             |
|  Number of variables:         37005                                         |
|  Number of clauses:          187726                                         |
|  Parse time:                   0.29 s                                       |
|                                                                             |
============================[ Search Statistics ]==============================
| Conflicts |          ORIGINAL         |          LEARNT          | Progress |
|           |    Vars  Clauses Literals |    Limit  Clauses Lit/Cl |          |
===============================================================================
|       100 |   36842   187566   432138 |    68774       99     43 |  0.440 % |
|       250 |   36842   187566   432138 |    75651      249     43 |  0.440 % |
|       475 |   36842   187566   432138 |    83216      474     47 |  0.440 % |
|       812 |   36842   187562   432130 |    91538      811     54 |  0.440 % |
|      1318 |   36842   187562   432130 |   100692     1317     53 |  0.440 % |
|      2077 |   36842   187562   432130 |   110761     2076     55 |  0.440 % |
|      3216 |   36842   187562   432130 |   121837     3215     93 |  0.440 % |
|      4924 |   36842   187562   432130 |   134021     4923     84 |  0.440 % |
|      7486 |   36842   187562   432130 |   147423     7485     80 |  0.440 % |
|     11330 |   36842   187562   432130 |   162165    11329     73 |  0.440 % |
|     17096 |   36842   187562   432130 |   178382    17095     74 |  0.440 % |
|     25745 |   36842   187562   432130 |   196220    25744     80 |  0.440 % |
|     38719 |   36842   187562   432130 |   215842    38718     88 |  0.440 % |
|     58180 |   36842   187562   432130 |   237427    58179     96 |  0.440 % |
ERROR: MiniSat process not found for FULL_RUN_MINISAT\9e85aad5707405fb349c6c5548040cf4-pcmax-scheduling-m35-32274-371389-SAT.sanitized.cnf 
Finished MiniSat on FULL_RUN_MINISAT\9e85aad5707405fb349c6c5548040cf4-pcmax-scheduling-m35-32274-371389-SAT.sanitized.cnf